CMD:
./solvers/bin/cadical --plain --no-reduce -t 1600 ./data/cnfs//oski15a08b15s/oski15a08b15s.38.cnf

c --- [ banner ] -------------------------------------------------------------
c 
c CaDiCaL SAT Solver
c Copyright (c) 2016-2024
c A. Biere, M. Fleury, N. Froleyks, K. Fazekas, F. Pollitt, T. Faller
c JKU Linz, University of Freiburg, TU Wien
c 
c Version 2.1.3 5296d3d2a9bf48c154ab2acb5e44625776d821bf
c g++ (Gentoo 12.3.1_p20230526 p2) 12.3.1 20230526 -Wall -Wextra -O3 -DNDEBUG
c Sat Aug 9 07:26:21 PDT 2025 Linux cedar2.int.cedar.computecanada.ca 5.14.0-362.24.2.el9_3.x86_64 x86_64
c 
c --- [ limit ] --------------------------------------------------------------
c 
c setting time limit to 1600 seconds real time (due to '-t 1600')
c 
c --- [ parsing input ] ------------------------------------------------------
c 
c reading DIMACS file from './data/cnfs//oski15a08b15s/oski15a08b15s.38.cnf'
c opening file to read './data/cnfs//oski15a08b15s/oski15a08b15s.38.cnf'
c found 'p cnf 32178829 94669123' header
c parsed 94669123 clauses in 18.37 seconds process time
c 
c --- [ options ] ------------------------------------------------------------
c 
c   --compact=false                (different from default 'true')
c   --decompose=false              (different from default 'true')
c   --deduplicate=false            (different from default 'true')
c   --elim=false                   (different from default 'true')
c   --probe=false                  (different from default 'true')
c   --reduce=false                 (different from default 'true')
c   --subsume=false                (different from default 'true')
c   --ternary=false                (different from default 'true')
c   --transred=false               (different from default 'true')
c   --vivify=false                 (different from default 'true')
c 
c --- [ solving ] ------------------------------------------------------------
c 
c time measured in process time since initialization
c 
c  seconds     reductions  redundant   irredundant
c           MB     restarts       trail          variables
c             level   conflicts       glue              remaining
c 
c * 18.38 14276  0 0   0    0    0  0% 0 90520181 26952443 84%
c { 20.31 14312  0 0   0    0    0  0% 0 90520181 26952443 84%
c i 29.83 14327 15456 0   0  167  164 39% 1 90520181 26952305 84%
c i 59.74 14331 16226 0  65  427  412 37% 2 90520181 26952299 84%
c i 64.33 14331 16429 0  70  445  428 37% 2 90520181 26952247 84%
c i 66.39 14331 16459 0  71  449  431 37% 2 90520181 26952239 84%
c i 72.24 14332 16655 0  81  485  462 38% 2 90520181 26952189 84%
c i 77.56 14329 16514 0  88  515  486 37% 2 90520181 26952157 84%
c i 77.59 14329 15482 0  98  550  518 36% 2 90520181 26952151 84%
c i 83.06 14329 13478 0 125  662  622 34% 2 90520181 26952097 84%
c i 93.92 14329 10993 0 174  862  809 31% 3 90520181 26952041 84%
c } 100.90 14330 9759 0 212 1000  930 30% 3 90520181 26952041 84%
c [ 100.90 14330  0 0 212 1000  930  0% 0 90520181 26952041 84%
c O 102.51 14330 15917 0 212 1002  932 28% 3 90520181 26952041 84%
c ] 128.37 14401 18995 0 212 1987 1901 66% 3 90520181 26952041 84%
c 1 128.37 14401 18995 0 212 1987 1901 66% 3 90520181 26952041 84%
c 
c --- [ result ] -------------------------------------------------------------
c 
s SATISFIABLE
v 1 2 3 4 5 6 7 -8 -9 10 -11 12 -13 14 -15 16 17 -18 19 20 21 22 23 24 25 26
v 27 28 29 30 31 32 33 34 35 36 37 38 39 40 41 42 43 44 45 46 47 48 49 50 51
v 52 53 54 55 56 57 58 59 60 61 62 63 64 65 -66 67 68 69 70 71 72 73 74 75 76
v 77 78 79 80 81 82 83 84 85 86 87 88 89 90 91 92 93 94 95 96 97 98 99 100 101
v 102 103 104 105 106 107 108 109 110 111 112 113 114 115 116 117 118 119 120
v 121 -122 123 124 125 126 127 128 129 130 131 -132 -133 -134 -135 -136 -137
v -138 -139 -140 -141 -142 -143 -144 -145 -146 -147 -148 -149 -150 -151 -152
v -153 -154 -155 -156 -157 -158 -159 -160 -161 -162 -163 -164 -165 -166 -167
v -168 -169 -170 -171 -172 -173 174 175 176 177 178 179 180 181 182 183 184
v 185 186 187 188 189 190 191 192 193 194 195 196 197 198 -199 200 -201 -202
v -203 -204 -205 -206 -207 -208 -209 -210 -211 -212 -213 -214 -215 -216 -217
v -218 -219 -220 -221 -222 -223 -224 -225 -226 -227 -228 -229 -230 -231 -232
v -233 -234 -235 -236 -237 -238 -239 -240 241 242 243 244 245 246 247 248 249
v 250 251 252 253 254 255 256 257 258 259 260 261 262 263 264 265 -266 267 268
v 269 270 271 272 273 274 275 -276 277 278 279 280 281 282 283 284 285 -286
v 287 288 289 290 291 292 293 294 295 -296 297 298 299 300 301 302 303 304 305
v -306 307 308 309 310 311 312 313 314 315 -316 317 318 319 320 321 322 323
v 324 325 -326 327 328 329 330 331 332 333 334 335 -336 337 338 339 340 341
v 342 343 344 345 -346 347 348 349 350 351 352 353 354 355 -356 357 358 359
v 360 361 362 363 364 365 -366 367 368 369 370 371 372 373 374 375 -376 377
v 378 379 380 381 382 383 384 385 -386 387 388 389 390 391 392 393 394 395
v -396 397 398 399 400 401 402 403 404 -405 -406 407 408 409 410 411 412 413
v 414 -415 -416 417 418 419 420 421 422 423 424 -425 -426 427 428 429 430 431
v 432 433 434 -435 -436 437 438 439 440 441 442 443 444 -445 -446 447 448 449
v 450 -451 452 453 454 455 -456 457 458 459 460 -461 462 463 464 465 -466 467
v 468 469 470 -471 472 473 474 475 -476 477 478 479 480 -481 482 483 484 485
v -486 487 488 489 490 491 492 493 494 495 496 497 498 499 500 501 502 503 504
v 505 506 507 508 509 510 511 512 513 514 515 516 517 518 519 520 521 522 523
v 524 525 526 527 528 529 530 531 532 533 534 535 536 537 538 539 540 541 542
v 543 544 545 546 547 548 549 550 551 552 553 554 555 556 557 558 559 560 561
v 562 563 564 565 566 567 568 569 570 571 572 573 574 -575 576 -577 578 -579
v -580 -581 582 583 584 585 586 587 588 589 590 591 592 593 594 595 596 597
v 598 599 600 601 602 603 604 605 606 607 608 609 610 611 612 613 614 615 616
v 617 618 619 620 621 622 623 624 625 626 627 628 629 630 631 632 633 634 635
... skipped 3944225 lines ...
v 32178441 32178442 -32178443 -32178444 -32178445 32178446 -32178447 32178448
v -32178449 -32178450 32178451 32178452 -32178453 -32178454 -32178455
v -32178456 32178457 -32178458 -32178459 32178460 32178461 -32178462 -32178463
v -32178464 32178465 -32178466 32178467 -32178468 -32178469 32178470 32178471
v -32178472 -32178473 -32178474 -32178475 32178476 -32178477 -32178478
v 32178479 32178480 -32178481 -32178482 -32178483 32178484 -32178485 32178486
v -32178487 -32178488 32178489 32178490 -32178491 -32178492 -32178493
v -32178494 32178495 -32178496 -32178497 32178498 32178499 -32178500 -32178501
v -32178502 32178503 -32178504 32178505 -32178506 -32178507 32178508 32178509
v -32178510 -32178511 -32178512 -32178513 32178514 -32178515 -32178516
v 32178517 32178518 -32178519 -32178520 -32178521 32178522 -32178523 32178524
v -32178525 -32178526 32178527 32178528 -32178529 -32178530 -32178531
v -32178532 32178533 -32178534 -32178535 32178536 32178537 -32178538 -32178539
v -32178540 32178541 -32178542 32178543 -32178544 -32178545 32178546 32178547
v -32178548 -32178549 -32178550 -32178551 32178552 -32178553 -32178554
v 32178555 32178556 -32178557 -32178558 -32178559 32178560 -32178561 32178562
v -32178563 -32178564 32178565 32178566 -32178567 -32178568 -32178569
v -32178570 32178571 -32178572 -32178573 32178574 32178575 -32178576 -32178577
v -32178578 32178579 -32178580 32178581 -32178582 -32178583 32178584 32178585
v -32178586 -32178587 -32178588 -32178589 32178590 -32178591 -32178592
v 32178593 32178594 -32178595 -32178596 -32178597 32178598 -32178599 32178600
v -32178601 -32178602 32178603 32178604 -32178605 -32178606 -32178607
v -32178608 32178609 -32178610 -32178611 32178612 32178613 -32178614 -32178615
v -32178616 32178617 -32178618 32178619 -32178620 -32178621 32178622 32178623
v -32178624 -32178625 -32178626 -32178627 32178628 -32178629 -32178630
v 32178631 32178632 -32178633 -32178634 -32178635 32178636 -32178637 32178638
v -32178639 -32178640 32178641 32178642 -32178643 -32178644 -32178645
v -32178646 32178647 -32178648 -32178649 32178650 32178651 -32178652 -32178653
v -32178654 32178655 -32178656 32178657 -32178658 -32178659 32178660 32178661
v -32178662 -32178663 -32178664 -32178665 32178666 -32178667 -32178668
v 32178669 32178670 -32178671 -32178672 -32178673 32178674 -32178675 32178676
v -32178677 -32178678 32178679 32178680 -32178681 -32178682 -32178683
v -32178684 32178685 -32178686 -32178687 32178688 32178689 -32178690 -32178691
v -32178692 32178693 -32178694 32178695 -32178696 -32178697 32178698 32178699
v -32178700 -32178701 -32178702 -32178703 32178704 -32178705 -32178706
v 32178707 32178708 -32178709 -32178710 -32178711 32178712 -32178713 32178714
v -32178715 -32178716 32178717 32178718 -32178719 -32178720 -32178721
v -32178722 32178723 -32178724 -32178725 32178726 32178727 -32178728 -32178729
v -32178730 32178731 -32178732 32178733 -32178734 -32178735 32178736 32178737
v -32178738 -32178739 -32178740 -32178741 32178742 -32178743 -32178744
v 32178745 32178746 -32178747 -32178748 -32178749 32178750 -32178751 32178752
v -32178753 -32178754 32178755 32178756 -32178757 -32178758 -32178759
v -32178760 32178761 -32178762 -32178763 32178764 32178765 -32178766 -32178767
v -32178768 32178769 -32178770 32178771 -32178772 -32178773 32178774 32178775
v -32178776 -32178777 -32178778 -32178779 32178780 -32178781 -32178782
v 32178783 32178784 -32178785 -32178786 -32178787 32178788 -32178789 32178790
v -32178791 -32178792 32178793 32178794 -32178795 -32178796 -32178797
v -32178798 32178799 -32178800 -32178801 32178802 32178803 -32178804 -32178805
v -32178806 32178807 -32178808 32178809 -32178810 -32178811 -32178812 32178813
v -32178814 -32178815 -32178816 -32178817 32178818 -32178819 32178820
v -32178821 -32178822 -32178823 32178824 -32178825 32178826 -32178827 32178828
v -32178829 0
c 
c --- [ run-time profiling ] -------------------------------------------------
c 
c process time taken by individual solving procedures
c (percentage relative to process time for solving)
c 
c       109.99  100.00% search
c        80.58   73.26% unstable
c        27.47   24.97% stable
c        18.37   16.71% parse
c         1.94    1.76% lucky
c         0.00    0.00% simplify
c   =================================
c       109.99   84.66% solve
c 
c last line shows process time for solving
c (percentage relative to total process time)
c 
c --- [ statistics ] ---------------------------------------------------------
c 
c chronological:               806        40.56 %  of conflicts
c conflicts:                  1987        18.07    per second
c decisions:               1690864     15372.67    per second
c fixed:                   5226788        16.24 %  of all variables
c learned:                    1916        96.43 %  per conflict
c learned_lits:              11988       100.00 %  learned literals
c minimized:                     0         0.00 %  learned literals
c shrunken:                   1694        14.13 %  learned literals
c minishrunken:                106         0.88 %  learned literals
c otfs:                          4         0.20 %  of conflict
c propagations:          805266227         7.32 M  per second
c rephased:                      1      1987.00    interval
c restarts:                    212         9.37    interval
c stabilizing:                   1        49.67 %  of conflicts
c subsumed:                      6         0.00 %  of all clauses
c strengthened:                  4         0.00 %  of all clauses
c 
c seconds are measured in process time for solving
c 
c --- [ resources ] ----------------------------------------------------------
c 
c total process time since initialization:       129.92    seconds
c total real time since initialization:          130.80    seconds
c maximum resident set size of process:        14408.64    MB
c 
c --- [ shutting down ] ------------------------------------------------------
c 
c exit 10
